2836
500000
331238
331238
331238
331238
331238
331238
331238
331238
331238
331238
331238
331238
329878
329878
329878
329878
329878
329878
329878
329287
329287
329287
329287
329287
329287
329287
329287
329287
329287
329287
329287
329287
329287
328903
328903
328903
328903
328674
328674
328674
328674
328674
328674
328674
328674
328674
328674
328674
328674
328674
328674
328674
327332
327332
327332
327332
327332
327332
325625
325625
325625
325625
325625
325625
325625
325625
325625
325625
325625
325625
325625
325625
325625
325625
325625
325625
325625
325625
316669
316669
316669
316669
316669
316669
316669
316669
316669
316669
316669
316669
316669
316669
316669
316669
316669
316669
315889
315889
315889
315889
315889
315889
315889
315889
315889
315889
315889
315889
315889
315889
315889
315889
315889
313151
313151
313151
313151
313151
313151
313151
313151
313151
313151
313151
313151
313151
313151
313151
313151
313151
313151
311808
311808
311255
311255
311255
311255
311255
311255
311255
311255
311255
311255
311255
311255
311255
311255
311255
311255
310235
310235
310235
310235
310235
310235
310235
310235
310235
310235
310235
308117
308117
308117
308117
308117
308117
308117
308117
307668
307668
307668
307668
307668
307668
306661
306661
306661
306661
306661
306661
306661
306661
306661
306661
306661
306661
306661
306661
306661
306661
306477
306477
306477
306477
306477
306477
306477
306477
306477
302695
302695
302695
302695
302695
302695
302695
302695
302695
302695
302695
302695
302695
302695
301481
301481
301481
301481
301481
301481
301007
301007
301007
301007
301007
301007
301007
301007
301007
301007
301007
301007
301007
301007
301007
301007
300220
300220
300220
300220
300220
300220
300220
300220
300220
300220
300220
300220
299760
299760
299760
299760
299760
299760
299760
299760
299760
299760
299760
299760
299760
299760
298964
298964
298964
298964
298964
298964
298964
298964
298964
298964
298964
298964
298964
298964
298964
298964
298964
298964
298219
298219
298219
298219
298219
298219
297377
297377
297377
297377
297377
297377
297377
297377
297377
297377
296284
294461
294461
294461
294461
294461
294461
294461
294461
294461
294461
294461
294461
294461
294461
294461
294461
294461
294461
290308
290308
290308
290308
290308
289708
289708
289708
289708
289708
289708
289708
289708
288449
288449
286713
286713
286713
286713
286713
286713
286713
286713
286713
286713
286713
286713
286713
286713
286713
286713
286713
286713
286486
286486
286486
286486
286486
286486
286486
286486
285881
285881
285881
285881
285881
285881
285881
285881
285881
285881
285845
285845
285845
285845
285845
285845
285845
285845
285845
285845
285845
285845
283747
283747
283747
283747
283747
283747
283747
283747
283747
283747
283747
283747
283747
283747
283747
283747
283747
283747
283747
282764
282764
282764
282764
282764
282764
282764
282764
282764
282764
282764
282764
282764
282764
282764
282764
282764
278342
278342
278342
278342
278342
278342
278342
278342
278342
278342
278342
278342
278342
278342
277840
277840
277840
277840
277840
277840
277840
277271
275142
275142
275142
275142
275142
275142
275142
270965
270965
270965
270965
270965
270965
270965
270944
270518
270516
270516
270516
270516
270516
270516
270516
270516
270516
270516
270516
270516
270516
270516
270516
270516
270516
270516
269954
269954
269954
269954
269954
269954
269954
269954
269954
269954
269954
269954
269954
269954
269954
269954
269954
269137
269137
269137
269137
269137
269137
268785
268785
268785
268785
268785
268785
268785
268785
268785
268785
268785
268785
266125
266125
266125
266125
266125
266125
266125
266125
266125
266125
266125
265506
265506
265506
265506
265506
265506
265506
265506
265506
265506
265506
265506
265506
262070
262070
262070
262070
262070
261596
258242
258242
258242
258242
258242
255741
255741
255605
255605
255605
255605
255605
255605
255605
255605
255605
255605
255605
255605
255605
255605
255605
255605
254253
254253
254253
254253
254253
254253
254253
254253
254253
254253
254253
253239
253239
253239
253239
253239
253239
253239
253239
253239
253239
253239
253239
253239
253239
253239
253239
253046
253046
253046
253046
253046
253046
253046
253046
253046
253046
253046
253046
253046
253046
253046
253046
253046
253046
253046
253046
252121
252121
252121
252121
252121
252121
252121
252121
252121
252121
252121
252121
252121
250447
250447
250447
250447
250447
250447
250447
250447
250447
250447
249428
249428
249428
249428
249428
249428
249428
249428
249428
249428
248852
248852
248852
248852
248852
248852
248852
248852
248852
248852
248852
248852
248852
248852
248852
247669
247669
247669
247669
247669
247669
246276
246276
246276
246276
246276
246276
246276
246276
246276
246276
246276
246276
246276
245294
245294
245294
245294
245294
245294
245294
245294
245294
245294
245294
245294
244722
244722
244722
242698
242698
242698
242698
242052
242052
242052
242052
242052
242052
242052
242052
242052
242052
242052
242052
242052
242052
242052
242052
242052
241951
241951
241951
241951
241951
241951
241951
241951
241951
241951
241951
241951
241951
241951
240639
240639
240639
240639
240639
240639
240639
240639
240639
240639
240639
240639
240639
240639
240639
240639
240639
240639
240151
240151
240151
240151
240151
240151
240151
240151
239819
238455
238455
238455
238455
237141
237141
237141
237141
237141
237141
237141
237141
236923
236923
236923
236923
236923
236923
236923
236923
236923
236923
236923
236923
236923
236923
236271
236271
236271
236271
236271
236271
236271
236271
236271
236271
236271
236271
236271
236271
236271
232339
232339
232339
232339
232339
232339
232339
232339
232339
232339
232339
232339
232339
232339
232339
232339
232339
232339
231669
231669
231669
231669
231669
231432
231432
231432
231432
231432
231432
231432
231432
231432
231432
231432
231432
231432
231432
231432
231432
231432
231432
231432
231373
231373
231373
231373
231373
231373
231373
231373
231373
231373
231373
231373
231373
231373
231373
231373
231373
231373
230000
230000
230000
230000
230000
230000
230000
230000
230000
230000
230000
230000
230000
230000
230000
230000
230000
230000
230000
229317
229317
229317
229317
229317
229317
229317
229317
229317
229282
229282
229282
229282
229282
229282
229282
229282
229282
229282
229282
229282
229282
229282
229282
229282
229282
229282
229282
229282
228475
228475
228475
228475
228475
228475
228475
228475
228475
228475
227398
227398
227398
227398
227398
227398
227398
227398
227398
227398
227398
227398
227398
227398
227398
227398
227398
227398
227398
227398
225061
225061
225061
225061
225061
225061
225061
225061
225061
225061
225061
224763
224763
224763
224763
224763
224763
224763
224763
224763
224763
224763
223637
223637
223637
223637
223637
223637
223637
223571
223571
223571
223571
223571
223571
223571
223571
223571
223571
223571
223571
223571
223571
222469
222469
222469
222469
222469
222469
221556
221556
221556
221556
221556
221556
221556
221556
221556
221556
221556
221556
221556
221556
221556
221556
221556
221556
221556
221556
221492
221492
221492
221492
221492
221492
221492
221492
221492
221492
221492
221492
220495
220495
220495
220385
220385
220385
220385
220385
220385
220385
220385
220385
220385
220385
220385
220385
220385
217914
217914
217914
217914
217914
217914
217914
217914
217914
217914
217914
217914
217914
217914
217914
217914
217914
217914
217914
217914
217751
217751
217751
217675
217675
217675
217675
217675
217675
217675
217675
217675
217675
217675
217675
217675
217675
217675
217675
217675
217675
217675
217236
217236
217236
217236
217236
217236
217236
217236
217236
217236
217236
217236
216431
214510
214510
214510
214510
214510
214510
214497
214497
214497
214497
214497
214497
214497
214497
214497
214497
214418
214418
214418
212138
212138
212138
212138
212138
212138
212138
212138
212138
212138
212138
212138
212138
212138
212138
212138
210881
210881
210881
210881
210881
210881
210881
210881
210881
210753
210753
210753
210753
210753
210753
210753
210753
210753
210753
210225
210225
210225
210225
210225
210225
210225
210225
210225
210225
210225
210225
210225
210225
210225
210225
210225
209696
209696
209696
209696
209696
209696
209696
209696
209696
209696
209696
209696
209696
209528
209528
209528
209528
209528
209528
209528
209528
209528
209528
209528
209528
209528
209528
209528
209528
209528
209528
209528
209528
208001
208001
208001
208001
208001
208001
208001
208001
208001
208001
208001
208001
208001
208001
208001
208001
204162
204162
204162
204162
204162
204162
204162
204162
204162
204162
204162
204162
204162
204162
202575
202575
202575
202575
202575
202575
202575
202575
201823
201823
201823
201823
201823
198220
198220
198220
198220
198220
198220
198220
198220
198220
198220
198220
197370
197370
197370
197370
197370
197370
197370
197370
197370
197370
197370
197370
197370
197370
197370
197370
197370
197239
197239
197239
197239
197239
197239
197239
197239
197239
197239
197239
197239
197239
197239
197239
197239
197239
197239
195078
195078
195078
195078
195078
195078
195078
195078
195078
195078
195078
195078
194514
194514
194514
194514
194514
194514
194514
194514
194514
194514
194514
194514
194514
194514
193983
193983
193983
192309
192309
192309
192309
192309
192309
192309
192309
192309
192309
192309
192309
192213
192213
192213
192213
192213
192213
192170
192170
192170
192170
192170
192170
192170
192170
192170
192170
192170
191814
191814
191814
191814
191814
191814
191814
191814
191814
191814
191814
191814
190105
190105
190105
190105
190105
190105
190105
190105
190105
190105
190105
189936
189936
189936
189936
189936
189936
189936
189936
189936
189936
189936
189936
189936
185854
185854
185854
185854
185854
185854
185854
185854
185854
185854
185854
185854
185854
185854
185854
185854
184765
184765
184765
184765
184765
184765
184765
184765
184765
181142
181142
181142
181142
181142
181142
181142
181142
181142
181142
181142
181142
179740
179740
179740
179740
179740
179564
179564
179564
179564
179564
179564
179564
179564
179564
179564
179564
179564
179564
179564
179564
179564
179564
179564
179564
179516
179516
179516
179516
179516
179516
179516
179516
179516
179516
179516
179516
179516
179516
179516
179516
179516
179516
179281
179281
179281
179281
179281
179281
179281
179281
179281
179281
178804
178804
178804
178804
178804
178804
178804
178804
178804
178804
178804
178804
178804
178804
178804
178804
178804
178804
178804
178299
178299
178299
178299
178299
178299
178299
177717
177717
177717
177717
177717
177717
177717
177717
177717
174382
174382
174382
174382
174382
174382
174382
174382
170615
170615
170615
170615
170615
170615
170205
170205
170205
170205
170205
170205
170205
170205
170205
170205
170205
170205
170205
169076
169076
169076
169076
169076
169076
169076
169076
169076
168833
168833
168833
168833
168833
168833
168833
168833
168833
168833
168833
168833
168343
168343
168343
168343
168343
168343
168343
168343
167584
167584
167584
167584
167584
167584
167584
167584
167584
167584
167584
167584
167584
167584
167584
167584
167584
167584
163445
163445
163445
163445
163445
163445
163445
162733
162733
162733
162733
162733
162733
162733
162733
162733
160711
160711
160711
158693
158693
158693
158693
158693
158693
158693
158693
158693
158693
158693
158693
158693
157909
157909
157909
157909
157909
157909
157909
157909
157683
157683
157683
157683
157683
157683
157683
157683
157683
157683
157683
157683
157683
157683
157683
157683
157683
156999
156999
156999
156999
156999
156999
156999
156999
156999
156999
156999
149889
149889
149889
149889
149889
149889
149889
149889
148287
148287
148287
148287
148287
148287
148287
148287
148287
148287
148287
148287
148287
148287
148287
148287
148287
148287
148287
148049
148049
148049
148049
148049
148049
148049
148049
148049
148049
146811
146811
146811
146811
146811
146811
146811
146811
146811
146811
146811
146811
144257
144257
144257
144257
144257
144257
144257
144257
142340
142340
142340
139650
139650
139650
139650
139650
139650
139650
139650
139650
139650
139650
139650
138834
138834
138834
138834
138834
138834
138834
138834
138834
138834
138834
138834
138677
138307
138307
138307
138307
138307
138307
138307
138307
138307
138307
138307
138307
138307
138307
138307
138307
138307
138119
138119
138119
138119
138119
138119
138119
138119
138119
136426
136426
136426
136426
136426
136426
136426
136426
136426
136426
135808
135808
135808
135808
135808
135808
135808
135808
135808
135808
135808
135808
135667
135667
135345
135345
130074
130074
130074
130074
130074
130074
130074
130074
130074
130074
130074
130074
130074
130074
130074
130074
130074
130074
128305
128305
128305
128305
128305
128305
128305
128305
128305
128305
128305
127789
127789
127789
127789
127789
127789
125974
125974
125974
125974
125974
125974
125974
125974
125974
125974
125974
125816
125816
125816
125816
125816
125816
125816
125816
125816
125816
125816
125816
125816
123572
123572
123572
123572
123572
123572
123572
123572
123572
123572
123572
123572
123572
123572
123572
123572
123572
121861
121861
121861
121861
121861
121861
119659
119659
119659
119659
119659
119659
119659
119659
119631
119631
119631
119631
119631
119631
116725
116725
116725
116725
116725
116725
116725
115914
115914
115914
115914
115914
115914
115914
115914
115914
115914
115914
114186
114186
114186
114186
114186
114186
114186
114186
114186
114186
114186
114186
114186
114186
114186
114186
114186
114186
114186
114186
110012
110012
110012
110012
110012
110012
110012
110012
110012
110012
110012
110012
110012
110012
110012
110012
110012
110012
107405
107405
107405
107061
107061
107061
107061
107061
107061
107061
107061
107061
107061
107061
107061
107061
107061
107061
107061
107061
107061
106289
106289
106289
106289
106289
106289
106289
105504
105504
105504
105504
105504
105504
105504
104327
104327
103312
103312
103312
103312
103312
103312
103312
103312
103312
103312
103312
103312
103312
103312
103312
103312
103312
103312
102750
102750
102750
102750
102750
102750
102750
102750
102750
102750
102750
102750
102750
102750
102750
102750
102750
102750
102750
102367
102367
102367
102367
102367
102367
102367
102367
102367
102367
102114
102114
102114
102114
102114
102114
102114
102114
102114
102114
102114
102114
102114
102114
102114
102114
101469
101469
101469
101469
101469
100798
100798
100798
100798
100798
100798
99891
99891
99891
99891
99891
99891
99891
99891
99891
99891
99891
98824
98824
98824
98824
98824
98824
98824
98824
98824
98824
98824
98824
98824
98824
98824
98824
98824
98824
98824
98824
97385
97385
97385
97385
97385
97385
97385
97385
97385
97385
97385
97385
97385
97385
97385
97385
97385
97385
97385
97385
95790
95790
95790
95790
95790
95790
95790
95790
95790
95790
95492
95492
95492
95492
95492
95492
95492
95492
95492
94778
94778
94778
94778
94778
94778
94778
94778
94778
94778
94778
94778
94778
94778
94778
94778
94778
94778
92362
92362
92362
92362
92362
92362
92362
92362
92362
92362
92362
92362
92362
92362
92362
92362
92362
92362
92362
92362
90996
90996
90996
90996
90996
90996
90996
90996
90996
90996
90996
90996
90996
90996
90996
90996
90996
90996
89837
89837
89837
89837
89837
89837
89837
89837
89837
89837
89837
89837
85896
84570
84570
84210
84210
84210
84210
84210
84210
82954
82954
82954
82954
82954
82954
82954
82954
82954
82954
82954
82954
82954
82954
82954
82954
82954
81902
81902
81902
81902
81902
81902
81902
81902
81902
81902
81902
81902
81902
81902
81902
81902
81902
81902
81902
81902
81439
81439
81439
81439
81439
81439
81439
81439
81439
81439
81439
81439
81439
81439
81439
81439
81439
81439
78160
78160
78160
78160
78160
78160
78160
78160
78160
75661
74435
74435
74435
74435
74435
74435
74435
74435
74435
74435
74435
74435
74435
74435
74435
74435
74435
74291
74291
74291
74291
74291
74291
74291
74291
74291
74291
74291
74291
74291
72615
72615
72615
72615
72615
72615
72615
72615
72615
72615
72615
72615
72615
72615
72615
72615
72385
72385
72385
72385
72385
72385
72385
72385
72385
72385
71412
71412
71412
71412
71412
71412
71412
71412
71412
71412
71412
71412
71412
71412
71412
71412
71412
71412
70419
70419
70419
70419
70419
70419
70419
70419
70419
70419
70419
70419
70419
70419
68118
67766
67766
67766
67766
67766
67766
67766
67766
67766
67766
67766
67251
67251
67251
67251
67251
67251
67251
67251
67251
67251
67251
67251
67251
67251
67251
65115
65115
65115
65115
65115
65115
65115
65115
65115
65115
65115
65115
65115
65115
65115
64853
64853
64853
64853
62795
62795
62795
62795
62795
62795
62795
62795
62795
62795
62795
62795
62795
62795
62795
62727
62727
62727
61874
61874
61874
61874
61874
61874
61874
61874
61874
61874
61874
61874
61874
61874
61874
61874
61874
61874
60662
60662
60662
58793
58793
58793
58793
58793
58793
58793
58793
58793
58793
58793
58793
58793
58793
58793
58793
58005
58005
58005
58005
58005
58005
58005
58005
58005
57913
57913
57913
57913
56710
56710
56710
56710
56710
56710
56710
56710
56710
56710
56710
56710
56710
56710
56710
56608
56608
56608
56608
56608
56608
56608
56608
56608
56608
56608
56608
56608
56476
56476
56342
56342
56342
56342
55496
55496
55496
55496
55496
55496
55496
54207
54207
54207
54207
54207
54207
54207
54207
54207
54207
54207
54207
54207
54207
54207
54207
54207
54207
54207
51462
51462
51462
51462
51462
51462
51462
51462
51462
51462
51462
51462
51462
51462
51462
51462
51462
51462
51462
51462
49901
49901
49901
49901
49901
49901
49901
49901
49901
49479
49479
49479
49479
49479
49479
49479
49479
49479
49479
49479
49479
49479
49479
49479
49479
49479
49479
49479
49479
49210
49210
49210
47242
47242
47242
47242
47242
47242
47242
47242
47242
47242
47242
47242
43201
43201
43201
43201
43201
43201
43201
43201
43201
43201
43201
43201
43201
43201
43201
43201
43201
43201
43201
43201
43079
43079
43079
43079
43079
43079
43079
43079
43079
43079
43079
43079
43079
43079
42703
42703
42703
42703
42703
42703
42703
42703
42703
42703
42703
42703
42703
42703
42703
42703
42703
42703
42703
42703
40313
40313
40313
40313
40313
40313
40313
40313
40313
40313
40313
40313
40313
40313
40313
40313
40313
40313
36354
36354
36354
36354
36354
36354
36354
36354
36354
36354
36354
36354
36354
36354
36354
36354
36354
36354
36354
36354
34687
34687
34687
34687
34687
34687
33027
33027
33027
33027
33027
33027
33027
33027
33027
33027
33027
33027
33027
33027
33027
33027
30917
30917
30917
30917
30917
30917
30917
30917
30917
30917
30917
30917
30917
30917
30917
29978
29978
27667
27667
27667
27667
27667
27667
27667
27667
27667
27667
27667
27667
27667
27667
27667
27667
27667
27667
27667
22902
22902
22902
22902
22902
22902
22902
22902
22902
22902
22902
22902
22902
22902
22902
22852
22852
22852
22852
22852
22852
22852
22852
22852
22852
22852
16545
16545
16545
16545
16545
16545
16545
16545
16545
16545
16545
16545
16545
16545
16545
16545
16545
16545
16545
11671
11671
11671
11671
11671
11671
11671
11671
11671
11671
11671
11671
9381
9381
9381
9381
9381
9381
9381
9381
9381
9381
9381
9381
9381
9381
9381
9381
9381
9381
9381
9249
9249
9249
9249
9249
9249
9249
9249
9249
9249
9249
9249
9249
9249
9249
9249
9017
9017
9017
9017
9017
9017
9017
9017
9017
9017
9017
9017
9017
9017
5986
5986
5986
5986
5986
5986
5986
5986
5986
